(set-info :source |printed by MathSAT|)

0 (4) @37:
(assert true)

4 (11) @43:
(assert true)

11 (16) @43:
(assert true)

16 (22) @43:
(assert true)

22 (26) @43:
(assert true)

26 (31) @43:
(assert true)

31 (39) @43:
(assert true)

39 (41,42) @43:
(assert true)

41 () @360:
(assert true)

42 () @43:
(assert true)

